model/gift64_4.cnf
p cnf 704 2343
2 -3 4 323 0
-2 -4 323 324 0
-1 2 -321 324 0
1 2 -3 323 0
1 2 3 -323 0
1 321 -322 -324 0
1 2 -3 4 -321 0
1 3 4 -322 0
-1 -3 4 321 0
-1 3 4 -321 0
3 321 -322 -323 0
-2 -321 -323 -324 0
-2 -3 -4 -321 0
3 321 322 323 0
-2 -3 321 324 0
2 -3 322 -324 0
2 321 322 -323 0
-1 -2 -4 322 0
1 -4 321 -323 0
-1 -2 -322 323 0
1 -2 -321 322 0
2 -4 -321 323 0
1 -321 -322 -323 0
-1 2 -4 -322 0
1 4 -324 0
-1 4 324 0
6 -7 8 327 0
-6 -8 327 328 0
-5 6 -325 328 0
5 6 -7 327 0
5 6 7 -327 0
5 325 -326 -328 0
5 6 -7 8 -325 0
5 7 8 -326 0
-5 -7 8 325 0
-5 7 8 -325 0
7 325 -326 -327 0
-6 -325 -327 -328 0
-6 -7 -8 -325 0
7 325 326 327 0
-6 -7 325 328 0
6 -7 326 -328 0
6 325 326 -327 0
-5 -6 -8 326 0
5 -8 325 -327 0
-5 -6 -326 327 0
5 -6 -325 326 0
6 -8 -325 327 0
5 -325 -326 -327 0
-5 6 -8 -326 0
5 8 -328 0
-5 8 328 0
10 -11 12 331 0
-10 -12 331 332 0
-9 10 -329 332 0
9 10 -11 331 0
9 10 11 -331 0
9 329 -330 -332 0
9 10 -11 12 -329 0
9 11 12 -330 0
-9 -11 12 329 0
-9 11 12 -329 0
11 329 -330 -331 0
-10 -329 -331 -332 0
-10 -11 -12 -329 0
11 329 330 331 0
-10 -11 329 332 0
10 -11 330 -332 0
10 329 330 -331 0
-9 -10 -12 330 0
9 -12 329 -331 0
-9 -10 -330 331 0
9 -10 -329 330 0
10 -12 -329 331 0
9 -329 -330 -331 0
-9 10 -12 -330 0
9 12 -332 0
-9 12 332 0
14 -15 16 335 0
-14 -16 335 336 0
-13 14 -333 336 0
13 14 -15 335 0
13 14 15 -335 0
13 333 -334 -336 0
13 14 -15 16 -333 0
13 15 16 -334 0
-13 -15 16 333 0
-13 15 16 -333 0
15 333 -334 -335 0
-14 -333 -335 -336 0
-14 -15 -16 -333 0
15 333 334 335 0
-14 -15 333 336 0
14 -15 334 -336 0
14 333 334 -335 0
-13 -14 -16 334 0
13 -16 333 -335 0
-13 -14 -334 335 0
13 -14 -333 334 0
14 -16 -333 335 0
13 -333 -334 -335 0
-13 14 -16 -334 0
13 16 -336 0
-13 16 336 0
18 -19 20 339 0
-18 -20 339 340 0
-17 18 -337 340 0
17 18 -19 339 0
17 18 19 -339 0
17 337 -338 -340 0
17 18 -19 20 -337 0
17 19 20 -338 0
-17 -19 20 337 0
-17 19 20 -337 0
19 337 -338 -339 0
-18 -337 -339 -340 0
-18 -19 -20 -337 0
19 337 338 339 0
-18 -19 337 340 0
18 -19 338 -340 0
18 337 338 -339 0
-17 -18 -20 338 0
17 -20 337 -339 0
-17 -18 -338 339 0
17 -18 -337 338 0
18 -20 -337 339 0
17 -337 -338 -339 0
-17 18 -20 -338 0
17 20 -340 0
-17 20 340 0
22 -23 24 343 0
-22 -24 343 344 0
-21 22 -341 344 0
21 22 -23 343 0
21 22 23 -343 0
21 341 -342 -344 0
21 22 -23 24 -341 0
21 23 24 -342 0
-21 -23 24 341 0
-21 23 24 -341 0
23 341 -342 -343 0
-22 -341 -343 -344 0
-22 -23 -24 -341 0
23 341 342 343 0
-22 -23 341 344 0
22 -23 342 -344 0
22 341 342 -343 0
-21 -22 -24 342 0
21 -24 341 -343 0
-21 -22 -342 343 0
21 -22 -341 342 0
22 -24 -341 343 0
21 -341 -342 -343 0
-21 22 -24 -342 0
21 24 -344 0
-21 24 344 0
26 -27 28 347 0
-26 -28 347 348 0
-25 26 -345 348 0
25 26 -27 347 0
25 26 27 -347 0
25 345 -346 -348 0
25 26 -27 28 -345 0
25 27 28 -346 0
-25 -27 28 345 0
-25 27 28 -345 0
27 345 -346 -347 0
-26 -345 -347 -348 0
-26 -27 -28 -345 0
27 345 346 347 0
-26 -27 345 348 0
26 -27 346 -348 0
26 345 346 -347 0
-25 -26 -28 346 0
25 -28 345 -347 0
-25 -26 -346 347 0
25 -26 -345 346 0
26 -28 -345 347 0
25 -345 -346 -347 0
-25 26 -28 -346 0
25 28 -348 0
-25 28 348 0
30 -31 32 351 0
-30 -32 351 352 0
-29 30 -349 352 0
29 30 -31 351 0
29 30 31 -351 0
29 349 -350 -352 0
29 30 -31 32 -349 0
29 31 32 -350 0
-29 -31 32 349 0
-29 31 32 -349 0
31 349 -350 -351 0
-30 -349 -351 -352 0
-30 -31 -32 -349 0
31 349 350 351 0
-30 -31 349 352 0
30 -31 350 -352 0
30 349 350 -351 0
-29 -30 -32 350 0
29 -32 349 -351 0
-29 -30 -350 351 0
29 -30 -349 350 0
30 -32 -349 351 0
29 -349 -350 -351 0
-29 30 -32 -350 0
29 32 -352 0
-29 32 352 0
34 -35 36 355 0
-34 -36 355 356 0
-33 34 -353 356 0
33 34 -35 355 0
33 34 35 -355 0
33 353 -354 -356 0
33 34 -35 36 -353 0
33 35 36 -354 0
-33 -35 36 353 0
-33 35 36 -353 0
35 353 -354 -355 0
-34 -353 -355 -356 0
-34 -35 -36 -353 0
35 353 354 355 0
-34 -35 353 356 0
34 -35 354 -356 0
34 353 354 -355 0
-33 -34 -36 354 0
33 -36 353 -355 0
-33 -34 -354 355 0
33 -34 -353 354 0
34 -36 -353 355 0
33 -353 -354 -355 0
-33 34 -36 -354 0
33 36 -356 0
-33 36 356 0
38 -39 40 359 0
-38 -40 359 360 0
-37 38 -357 360 0
37 38 -39 359 0
37 38 39 -359 0
37 357 -358 -360 0
37 38 -39 40 -357 0
37 39 40 -358 0
-37 -39 40 357 0
-37 39 40 -357 0
39 357 -358 -359 0
-38 -357 -359 -360 0
-38 -39 -40 -357 0
39 357 358 359 0
-38 -39 357 360 0
38 -39 358 -360 0
38 357 358 -359 0
-37 -38 -40 358 0
37 -40 357 -359 0
-37 -38 -358 359 0
37 -38 -357 358 0
38 -40 -357 359 0
37 -357 -358 -359 0
-37 38 -40 -358 0
37 40 -360 0
-37 40 360 0
42 -43 44 363 0
-42 -44 363 364 0
-41 42 -361 364 0
41 42 -43 363 0
41 42 43 -363 0
41 361 -362 -364 0
41 42 -43 44 -361 0
41 43 44 -362 0
-41 -43 44 361 0
-41 43 44 -361 0
43 361 -362 -363 0
-42 -361 -363 -364 0
-42 -43 -44 -361 0
43 361 362 363 0
-42 -43 361 364 0
42 -43 362 -364 0
42 361 362 -363 0
-41 -42 -44 362 0
41 -44 361 -363 0
-41 -42 -362 363 0
41 -42 -361 362 0
42 -44 -361 363 0
41 -361 -362 -363 0
-41 42 -44 -362 0
41 44 -364 0
-41 44 364 0
46 -47 48 367 0
-46 -48 367 368 0
-45 46 -365 368 0
45 46 -47 367 0
45 46 47 -367 0
45 365 -366 -368 0
45 46 -47 48 -365 0
45 47 48 -366 0
-45 -47 48 365 0
-45 47 48 -365 0
47 365 -366 -367 0
-46 -365 -367 -368 0
-46 -47 -48 -365 0
47 365 366 367 0
-46 -47 365 368 0
46 -47 366 -368 0
46 365 366 -367 0
-45 -46 -48 366 0
45 -48 365 -367 0
-45 -46 -366 367 0
45 -46 -365 366 0
46 -48 -365 367 0
45 -365 -366 -367 0
-45 46 -48 -366 0
45 48 -368 0
-45 48 368 0
50 -51 52 371 0
-50 -52 371 372 0
-49 50 -369 372 0
49 50 -51 371 0
49 50 51 -371 0
49 369 -370 -372 0
49 50 -51 52 -369 0
49 51 52 -370 0
-49 -51 52 369 0
-49 51 52 -369 0
51 369 -370 -371 0
-50 -369 -371 -372 0
-50 -51 -52 -369 0
51 369 370 371 0
-50 -51 369 372 0
50 -51 370 -372 0
50 369 370 -371 0
-49 -50 -52 370 0
49 -52 369 -371 0
-49 -50 -370 371 0
49 -50 -369 370 0
50 -52 -369 371 0
49 -369 -370 -371 0
-49 50 -52 -370 0
49 52 -372 0
-49 52 372 0
55 56 373 0
55 -56 -373 0
-55 56 -373 0
-55 -56 373 0
55 -375 0
-55 375 0
373 374 0
-373 -374 0
-53 0
-54 0
-376 0
58 59 377 0
58 -59 -377 0
-58 59 -377 0
-58 -59 377 0
59 -378 0
-59 378 0
377 379 0
-377 -379 0
-57 0
-60 0
-380 0
62 -63 64 383 0
-62 -64 383 384 0
-61 62 -381 384 0
61 62 -63 383 0
61 62 63 -383 0
61 381 -382 -384 0
61 62 -63 64 -381 0
61 63 64 -382 0
-61 -63 64 381 0
-61 63 64 -381 0
63 381 -382 -383 0
-62 -381 -383 -384 0
-62 -63 -64 -381 0
63 381 382 383 0
-62 -63 381 384 0
62 -63 382 -384 0
62 381 382 -383 0
-61 -62 -64 382 0
61 -64 381 -383 0
-61 -62 -382 383 0
61 -62 -381 382 0
62 -64 -381 383 0
61 -381 -382 -383 0
-61 62 -64 -382 0
61 64 -384 0
-61 64 384 0
321 577 -65 0
321 -577 65 0
-321 577 65 0
-321 -577 -65 0
338 593 -66 0
338 -593 66 0
-338 593 66 0
-338 -593 -66 0
355 -67 0
-355 67 0
372 -68 0
-372 68 0
369 578 -69 0
369 -578 69 0
-369 578 69 0
-369 -578 -69 0
322 594 -70 0
322 -594 70 0
-322 594 70 0
-322 -594 -70 0
339 -71 0
-339 71 0
356 -72 0
-356 72 0
353 579 -73 0
353 -579 73 0
-353 579 73 0
-353 -579 -73 0
370 595 -74 0
370 -595 74 0
-370 595 74 0
-370 -595 -74 0
323 -75 0
-323 75 0
340 -76 0
-340 76 0
337 580 -77 0
337 -580 77 0
-337 580 77 0
-337 -580 -77 0
354 596 -78 0
354 -596 78 0
-354 596 78 0
-354 -596 -78 0
371 -79 0
-371 79 0
324 -80 0
-324 80 0
325 581 -81 0
325 -581 81 0
-325 581 81 0
-325 -581 -81 0
342 597 -82 0
342 -597 82 0
-342 597 82 0
-342 -597 -82 0
359 -83 0
-359 83 0
376 -84 0
-376 84 0
373 582 -85 0
373 -582 85 0
-373 582 85 0
-373 -582 -85 0
326 598 -86 0
326 -598 86 0
-326 598 86 0
-326 -598 -86 0
343 -87 0
-343 87 0
360 -88 0
-360 88 0
357 583 -89 0
357 -583 89 0
-357 583 89 0
-357 -583 -89 0
374 599 -90 0
374 -599 90 0
-374 599 90 0
-374 -599 -90 0
327 -91 0
-327 91 0
344 -92 0
-344 92 0
341 584 -93 0
341 -584 93 0
-341 584 93 0
-341 -584 -93 0
358 600 -94 0
358 -600 94 0
-358 600 94 0
-358 -600 -94 0
375 -95 0
-375 95 0
328 -96 0
-328 96 0
329 585 -97 0
329 -585 97 0
-329 585 97 0
-329 -585 -97 0
346 601 -98 0
346 -601 98 0
-346 601 98 0
-346 -601 -98 0
363 -99 0
-363 99 0
380 -100 0
-380 100 0
377 586 -101 0
377 -586 101 0
-377 586 101 0
-377 -586 -101 0
330 602 -102 0
330 -602 102 0
-330 602 102 0
-330 -602 -102 0
347 -103 0
-347 103 0
364 -104 0
-364 104 0
361 587 -105 0
361 -587 105 0
-361 587 105 0
-361 -587 -105 0
378 603 -106 0
378 -603 106 0
-378 603 106 0
-378 -603 -106 0
331 -107 0
-331 107 0
348 -108 0
-348 108 0
345 588 -109 0
345 -588 109 0
-345 588 109 0
-345 -588 -109 0
362 604 -110 0
362 -604 110 0
-362 604 110 0
-362 -604 -110 0
379 -111 0
-379 111 0
332 -112 0
-332 112 0
333 589 -113 0
333 -589 113 0
-333 589 113 0
-333 -589 -113 0
350 605 -114 0
350 -605 114 0
-350 605 114 0
-350 -605 -114 0
367 -115 0
-367 115 0
384 -116 0
-384 116 0
381 590 -117 0
381 -590 117 0
-381 590 117 0
-381 -590 -117 0
334 606 -118 0
334 -606 118 0
-334 606 118 0
-334 -606 -118 0
351 -119 0
-351 119 0
368 -120 0
-368 120 0
365 591 -121 0
365 -591 121 0
-365 591 121 0
-365 -591 -121 0
382 607 -122 0
382 -607 122 0
-382 607 122 0
-382 -607 -122 0
335 -123 0
-335 123 0
352 -124 0
-352 124 0
349 592 -125 0
349 -592 125 0
-349 592 125 0
-349 -592 -125 0
366 608 -126 0
366 -608 126 0
-366 608 126 0
-366 -608 -126 0
383 -127 0
-383 127 0
336 -128 0
-336 128 0
66 -67 68 387 0
-66 -68 387 388 0
-65 66 -385 388 0
65 66 -67 387 0
65 66 67 -387 0
65 385 -386 -388 0
65 66 -67 68 -385 0
65 67 68 -386 0
-65 -67 68 385 0
-65 67 68 -385 0
67 385 -386 -387 0
-66 -385 -387 -388 0
-66 -67 -68 -385 0
67 385 386 387 0
-66 -67 385 388 0
66 -67 386 -388 0
66 385 386 -387 0
-65 -66 -68 386 0
65 -68 385 -387 0
-65 -66 -386 387 0
65 -66 -385 386 0
66 -68 -385 387 0
65 -385 -386 -387 0
-65 66 -68 -386 0
65 68 -388 0
-65 68 388 0
70 -71 72 391 0
-70 -72 391 392 0
-69 70 -389 392 0
69 70 -71 391 0
69 70 71 -391 0
69 389 -390 -392 0
69 70 -71 72 -389 0
69 71 72 -390 0
-69 -71 72 389 0
-69 71 72 -389 0
71 389 -390 -391 0
-70 -389 -391 -392 0
-70 -71 -72 -389 0
71 389 390 391 0
-70 -71 389 392 0
70 -71 390 -392 0
70 389 390 -391 0
-69 -70 -72 390 0
69 -72 389 -391 0
-69 -70 -390 391 0
69 -70 -389 390 0
70 -72 -389 391 0
69 -389 -390 -391 0
-69 70 -72 -390 0
69 72 -392 0
-69 72 392 0
74 -75 76 395 0
-74 -76 395 396 0
-73 74 -393 396 0
73 74 -75 395 0
73 74 75 -395 0
73 393 -394 -396 0
73 74 -75 76 -393 0
73 75 76 -394 0
-73 -75 76 393 0
-73 75 76 -393 0
75 393 -394 -395 0
-74 -393 -395 -396 0
-74 -75 -76 -393 0
75 393 394 395 0
-74 -75 393 396 0
74 -75 394 -396 0
74 393 394 -395 0
-73 -74 -76 394 0
73 -76 393 -395 0
-73 -74 -394 395 0
73 -74 -393 394 0
74 -76 -393 395 0
73 -393 -394 -395 0
-73 74 -76 -394 0
73 76 -396 0
-73 76 396 0
78 -79 80 399 0
-78 -80 399 400 0
-77 78 -397 400 0
77 78 -79 399 0
77 78 79 -399 0
77 397 -398 -400 0
77 78 -79 80 -397 0
77 79 80 -398 0
-77 -79 80 397 0
-77 79 80 -397 0
79 397 -398 -399 0
-78 -397 -399 -400 0
-78 -79 -80 -397 0
79 397 398 399 0
-78 -79 397 400 0
78 -79 398 -400 0
78 397 398 -399 0
-77 -78 -80 398 0
77 -80 397 -399 0
-77 -78 -398 399 0
77 -78 -397 398 0
78 -80 -397 399 0
77 -397 -398 -399 0
-77 78 -80 -398 0
77 80 -400 0
-77 80 400 0
82 -83 84 403 0
-82 -84 403 404 0
-81 82 -401 404 0
81 82 -83 403 0
81 82 83 -403 0
81 401 -402 -404 0
81 82 -83 84 -401 0
81 83 84 -402 0
-81 -83 84 401 0
-81 83 84 -401 0
83 401 -402 -403 0
-82 -401 -403 -404 0
-82 -83 -84 -401 0
83 401 402 403 0
-82 -83 401 404 0
82 -83 402 -404 0
82 401 402 -403 0
-81 -82 -84 402 0
81 -84 401 -403 0
-81 -82 -402 403 0
81 -82 -401 402 0
82 -84 -401 403 0
81 -401 -402 -403 0
-81 82 -84 -402 0
81 84 -404 0
-81 84 404 0
86 -87 88 407 0
-86 -88 407 408 0
-85 86 -405 408 0
85 86 -87 407 0
85 86 87 -407 0
85 405 -406 -408 0
85 86 -87 88 -405 0
85 87 88 -406 0
-85 -87 88 405 0
-85 87 88 -405 0
87 405 -406 -407 0
-86 -405 -407 -408 0
-86 -87 -88 -405 0
87 405 406 407 0
-86 -87 405 408 0
86 -87 406 -408 0
86 405 406 -407 0
-85 -86 -88 406 0
85 -88 405 -407 0
-85 -86 -406 407 0
85 -86 -405 406 0
86 -88 -405 407 0
85 -405 -406 -407 0
-85 86 -88 -406 0
85 88 -408 0
-85 88 408 0
90 -91 92 411 0
-90 -92 411 412 0
-89 90 -409 412 0
89 90 -91 411 0
89 90 91 -411 0
89 409 -410 -412 0
89 90 -91 92 -409 0
89 91 92 -410 0
-89 -91 92 409 0
-89 91 92 -409 0
91 409 -410 -411 0
-90 -409 -411 -412 0
-90 -91 -92 -409 0
91 409 410 411 0
-90 -91 409 412 0
90 -91 410 -412 0
90 409 410 -411 0
-89 -90 -92 410 0
89 -92 409 -411 0
-89 -90 -410 411 0
89 -90 -409 410 0
90 -92 -409 411 0
89 -409 -410 -411 0
-89 90 -92 -410 0
89 92 -412 0
-89 92 412 0
94 -95 96 415 0
-94 -96 415 416 0
-93 94 -413 416 0
93 94 -95 415 0
93 94 95 -415 0
93 413 -414 -416 0
93 94 -95 96 -413 0
93 95 96 -414 0
-93 -95 96 413 0
-93 95 96 -413 0
95 413 -414 -415 0
-94 -413 -415 -416 0
-94 -95 -96 -413 0
95 413 414 415 0
-94 -95 413 416 0
94 -95 414 -416 0
94 413 414 -415 0
-93 -94 -96 414 0
93 -96 413 -415 0
-93 -94 -414 415 0
93 -94 -413 414 0
94 -96 -413 415 0
93 -413 -414 -415 0
-93 94 -96 -414 0
93 96 -416 0
-93 96 416 0
98 -99 100 419 0
-98 -100 419 420 0
-97 98 -417 420 0
97 98 -99 419 0
97 98 99 -419 0
97 417 -418 -420 0
97 98 -99 100 -417 0
97 99 100 -418 0
-97 -99 100 417 0
-97 99 100 -417 0
99 417 -418 -419 0
-98 -417 -419 -420 0
-98 -99 -100 -417 0
99 417 418 419 0
-98 -99 417 420 0
98 -99 418 -420 0
98 417 418 -419 0
-97 -98 -100 418 0
97 -100 417 -419 0
-97 -98 -418 419 0
97 -98 -417 418 0
98 -100 -417 419 0
97 -417 -418 -419 0
-97 98 -100 -418 0
97 100 -420 0
-97 100 420 0
102 -103 104 423 0
-102 -104 423 424 0
-101 102 -421 424 0
101 102 -103 423 0
101 102 103 -423 0
101 421 -422 -424 0
101 102 -103 104 -421 0
101 103 104 -422 0
-101 -103 104 421 0
-101 103 104 -421 0
103 421 -422 -423 0
-102 -421 -423 -424 0
-102 -103 -104 -421 0
103 421 422 423 0
-102 -103 421 424 0
102 -103 422 -424 0
102 421 422 -423 0
-101 -102 -104 422 0
101 -104 421 -423 0
-101 -102 -422 423 0
101 -102 -421 422 0
102 -104 -421 423 0
101 -421 -422 -423 0
-101 102 -104 -422 0
101 104 -424 0
-101 104 424 0
106 -107 108 427 0
-106 -108 427 428 0
-105 106 -425 428 0
105 106 -107 427 0
105 106 107 -427 0
105 425 -426 -428 0
105 106 -107 108 -425 0
105 107 108 -426 0
-105 -107 108 425 0
-105 107 108 -425 0
107 425 -426 -427 0
-106 -425 -427 -428 0
-106 -107 -108 -425 0
107 425 426 427 0
-106 -107 425 428 0
106 -107 426 -428 0
106 425 426 -427 0
-105 -106 -108 426 0
105 -108 425 -427 0
-105 -106 -426 427 0
105 -106 -425 426 0
106 -108 -425 427 0
105 -425 -426 -427 0
-105 106 -108 -426 0
105 108 -428 0
-105 108 428 0
110 -111 112 431 0
-110 -112 431 432 0
-109 110 -429 432 0
109 110 -111 431 0
109 110 111 -431 0
109 429 -430 -432 0
109 110 -111 112 -429 0
109 111 112 -430 0
-109 -111 112 429 0
-109 111 112 -429 0
111 429 -430 -431 0
-110 -429 -431 -432 0
-110 -111 -112 -429 0
111 429 430 431 0
-110 -111 429 432 0
110 -111 430 -432 0
110 429 430 -431 0
-109 -110 -112 430 0
109 -112 429 -431 0
-109 -110 -430 431 0
109 -110 -429 430 0
110 -112 -429 431 0
109 -429 -430 -431 0
-109 110 -112 -430 0
109 112 -432 0
-109 112 432 0
114 -115 116 435 0
-114 -116 435 436 0
-113 114 -433 436 0
113 114 -115 435 0
113 114 115 -435 0
113 433 -434 -436 0
113 114 -115 116 -433 0
113 115 116 -434 0
-113 -115 116 433 0
-113 115 116 -433 0
115 433 -434 -435 0
-114 -433 -435 -436 0
-114 -115 -116 -433 0
115 433 434 435 0
-114 -115 433 436 0
114 -115 434 -436 0
114 433 434 -435 0
-113 -114 -116 434 0
113 -116 433 -435 0
-113 -114 -434 435 0
113 -114 -433 434 0
114 -116 -433 435 0
113 -433 -434 -435 0
-113 114 -116 -434 0
113 116 -436 0
-113 116 436 0
118 -119 120 439 0
-118 -120 439 440 0
-117 118 -437 440 0
117 118 -119 439 0
117 118 119 -439 0
117 437 -438 -440 0
117 118 -119 120 -437 0
117 119 120 -438 0
-117 -119 120 437 0
-117 119 120 -437 0
119 437 -438 -439 0
-118 -437 -439 -440 0
-118 -119 -120 -437 0
119 437 438 439 0
-118 -119 437 440 0
118 -119 438 -440 0
118 437 438 -439 0
-117 -118 -120 438 0
117 -120 437 -439 0
-117 -118 -438 439 0
117 -118 -437 438 0
118 -120 -437 439 0
117 -437 -438 -439 0
-117 118 -120 -438 0
117 120 -440 0
-117 120 440 0
122 -123 124 443 0
-122 -124 443 444 0
-121 122 -441 444 0
121 122 -123 443 0
121 122 123 -443 0
121 441 -442 -444 0
121 122 -123 124 -441 0
121 123 124 -442 0
-121 -123 124 441 0
-121 123 124 -441 0
123 441 -442 -443 0
-122 -441 -443 -444 0
-122 -123 -124 -441 0
123 441 442 443 0
-122 -123 441 444 0
122 -123 442 -444 0
122 441 442 -443 0
-121 -122 -124 442 0
121 -124 441 -443 0
-121 -122 -442 443 0
121 -122 -441 442 0
122 -124 -441 443 0
121 -441 -442 -443 0
-121 122 -124 -442 0
121 124 -444 0
-121 124 444 0
126 127 445 0
126 -127 -445 0
-126 127 -445 0
-126 -127 445 0
127 -446 0
-127 446 0
445 447 0
-445 -447 0
-125 0
-128 0
-448 0
385 609 -129 0
385 -609 129 0
-385 609 129 0
-385 -609 -129 0
402 625 -130 0
402 -625 130 0
-402 625 130 0
-402 -625 -130 0
419 -131 0
-419 131 0
436 -132 0
-436 132 0
433 610 -133 0
433 -610 133 0
-433 610 133 0
-433 -610 -133 0
386 626 -134 0
386 -626 134 0
-386 626 134 0
-386 -626 -134 0
403 -135 0
-403 135 0
420 -136 0
-420 136 0
417 611 -137 0
417 -611 137 0
-417 611 137 0
-417 -611 -137 0
434 627 -138 0
434 -627 138 0
-434 627 138 0
-434 -627 -138 0
387 -139 0
-387 139 0
404 -140 0
-404 140 0
401 612 -141 0
401 -612 141 0
-401 612 141 0
-401 -612 -141 0
418 628 -142 0
418 -628 142 0
-418 628 142 0
-418 -628 -142 0
435 -143 0
-435 143 0
388 -144 0
-388 144 0
389 613 -145 0
389 -613 145 0
-389 613 145 0
-389 -613 -145 0
406 629 -146 0
406 -629 146 0
-406 629 146 0
-406 -629 -146 0
423 -147 0
-423 147 0
440 -148 0
-440 148 0
437 614 -149 0
437 -614 149 0
-437 614 149 0
-437 -614 -149 0
390 630 -150 0
390 -630 150 0
-390 630 150 0
-390 -630 -150 0
407 -151 0
-407 151 0
424 -152 0
-424 152 0
421 615 -153 0
421 -615 153 0
-421 615 153 0
-421 -615 -153 0
438 631 -154 0
438 -631 154 0
-438 631 154 0
-438 -631 -154 0
391 -155 0
-391 155 0
408 -156 0
-408 156 0
405 616 -157 0
405 -616 157 0
-405 616 157 0
-405 -616 -157 0
422 632 -158 0
422 -632 158 0
-422 632 158 0
-422 -632 -158 0
439 -159 0
-439 159 0
392 -160 0
-392 160 0
393 617 -161 0
393 -617 161 0
-393 617 161 0
-393 -617 -161 0
410 633 -162 0
410 -633 162 0
-410 633 162 0
-410 -633 -162 0
427 -163 0
-427 163 0
444 -164 0
-444 164 0
441 618 -165 0
441 -618 165 0
-441 618 165 0
-441 -618 -165 0
394 634 -166 0
394 -634 166 0
-394 634 166 0
-394 -634 -166 0
411 -167 0
-411 167 0
428 -168 0
-428 168 0
425 619 -169 0
425 -619 169 0
-425 619 169 0
-425 -619 -169 0
442 635 -170 0
442 -635 170 0
-442 635 170 0
-442 -635 -170 0
395 -171 0
-395 171 0
412 -172 0
-412 172 0
409 620 -173 0
409 -620 173 0
-409 620 173 0
-409 -620 -173 0
426 636 -174 0
426 -636 174 0
-426 636 174 0
-426 -636 -174 0
443 -175 0
-443 175 0
396 -176 0
-396 176 0
397 621 -177 0
397 -621 177 0
-397 621 177 0
-397 -621 -177 0
414 637 -178 0
414 -637 178 0
-414 637 178 0
-414 -637 -178 0
431 -179 0
-431 179 0
448 -180 0
-448 180 0
445 622 -181 0
445 -622 181 0
-445 622 181 0
-445 -622 -181 0
398 638 -182 0
398 -638 182 0
-398 638 182 0
-398 -638 -182 0
415 -183 0
-415 183 0
432 -184 0
-432 184 0
429 623 -185 0
429 -623 185 0
-429 623 185 0
-429 -623 -185 0
446 639 -186 0
446 -639 186 0
-446 639 186 0
-446 -639 -186 0
399 -187 0
-399 187 0
416 -188 0
-416 188 0
413 624 -189 0
413 -624 189 0
-413 624 189 0
-413 -624 -189 0
430 640 -190 0
430 -640 190 0
-430 640 190 0
-430 -640 -190 0
447 -191 0
-447 191 0
400 -192 0
-400 192 0
130 -131 132 451 0
-130 -132 451 452 0
-129 130 -449 452 0
129 130 -131 451 0
129 130 131 -451 0
129 449 -450 -452 0
129 130 -131 132 -449 0
129 131 132 -450 0
-129 -131 132 449 0
-129 131 132 -449 0
131 449 -450 -451 0
-130 -449 -451 -452 0
-130 -131 -132 -449 0
131 449 450 451 0
-130 -131 449 452 0
130 -131 450 -452 0
130 449 450 -451 0
-129 -130 -132 450 0
129 -132 449 -451 0
-129 -130 -450 451 0
129 -130 -449 450 0
130 -132 -449 451 0
129 -449 -450 -451 0
-129 130 -132 -450 0
129 132 -452 0
-129 132 452 0
134 -135 136 455 0
-134 -136 455 456 0
-133 134 -453 456 0
133 134 -135 455 0
133 134 135 -455 0
133 453 -454 -456 0
133 134 -135 136 -453 0
133 135 136 -454 0
-133 -135 136 453 0
-133 135 136 -453 0
135 453 -454 -455 0
-134 -453 -455 -456 0
-134 -135 -136 -453 0
135 453 454 455 0
-134 -135 453 456 0
134 -135 454 -456 0
134 453 454 -455 0
-133 -134 -136 454 0
133 -136 453 -455 0
-133 -134 -454 455 0
133 -134 -453 454 0
134 -136 -453 455 0
133 -453 -454 -455 0
-133 134 -136 -454 0
133 136 -456 0
-133 136 456 0
138 -139 140 459 0
-138 -140 459 460 0
-137 138 -457 460 0
137 138 -139 459 0
137 138 139 -459 0
137 457 -458 -460 0
137 138 -139 140 -457 0
137 139 140 -458 0
-137 -139 140 457 0
-137 139 140 -457 0
139 457 -458 -459 0
-138 -457 -459 -460 0
-138 -139 -140 -457 0
139 457 458 459 0
-138 -139 457 460 0
138 -139 458 -460 0
138 457 458 -459 0
-137 -138 -140 458 0
137 -140 457 -459 0
-137 -138 -458 459 0
137 -138 -457 458 0
138 -140 -457 459 0
137 -457 -458 -459 0
-137 138 -140 -458 0
137 140 -460 0
-137 140 460 0
142 -143 144 463 0
-142 -144 463 464 0
-141 142 -461 464 0
141 142 -143 463 0
141 142 143 -463 0
141 461 -462 -464 0
141 142 -143 144 -461 0
141 143 144 -462 0
-141 -143 144 461 0
-141 143 144 -461 0
143 461 -462 -463 0
-142 -461 -463 -464 0
-142 -143 -144 -461 0
143 461 462 463 0
-142 -143 461 464 0
142 -143 462 -464 0
142 461 462 -463 0
-141 -142 -144 462 0
141 -144 461 -463 0
-141 -142 -462 463 0
141 -142 -461 462 0
142 -144 -461 463 0
141 -461 -462 -463 0
-141 142 -144 -462 0
141 144 -464 0
-141 144 464 0
146 -147 148 467 0
-146 -148 467 468 0
-145 146 -465 468 0
145 146 -147 467 0
145 146 147 -467 0
145 465 -466 -468 0
145 146 -147 148 -465 0
145 147 148 -466 0
-145 -147 148 465 0
-145 147 148 -465 0
147 465 -466 -467 0
-146 -465 -467 -468 0
-146 -147 -148 -465 0
147 465 466 467 0
-146 -147 465 468 0
146 -147 466 -468 0
146 465 466 -467 0
-145 -146 -148 466 0
145 -148 465 -467 0
-145 -146 -466 467 0
145 -146 -465 466 0
146 -148 -465 467 0
145 -465 -466 -467 0
-145 146 -148 -466 0
145 148 -468 0
-145 148 468 0
150 -151 152 471 0
-150 -152 471 472 0
-149 150 -469 472 0
149 150 -151 471 0
149 150 151 -471 0
149 469 -470 -472 0
149 150 -151 152 -469 0
149 151 152 -470 0
-149 -151 152 469 0
-149 151 152 -469 0
151 469 -470 -471 0
-150 -469 -471 -472 0
-150 -151 -152 -469 0
151 469 470 471 0
-150 -151 469 472 0
150 -151 470 -472 0
150 469 470 -471 0
-149 -150 -152 470 0
149 -152 469 -471 0
-149 -150 -470 471 0
149 -150 -469 470 0
150 -152 -469 471 0
149 -469 -470 -471 0
-149 150 -152 -470 0
149 152 -472 0
-149 152 472 0
154 -155 156 475 0
-154 -156 475 476 0
-153 154 -473 476 0
153 154 -155 475 0
153 154 155 -475 0
153 473 -474 -476 0
153 154 -155 156 -473 0
153 155 156 -474 0
-153 -155 156 473 0
-153 155 156 -473 0
155 473 -474 -475 0
-154 -473 -475 -476 0
-154 -155 -156 -473 0
155 473 474 475 0
-154 -155 473 476 0
154 -155 474 -476 0
154 473 474 -475 0
-153 -154 -156 474 0
153 -156 473 -475 0
-153 -154 -474 475 0
153 -154 -473 474 0
154 -156 -473 475 0
153 -473 -474 -475 0
-153 154 -156 -474 0
153 156 -476 0
-153 156 476 0
158 -159 160 479 0
-158 -160 479 480 0
-157 158 -477 480 0
157 158 -159 479 0
157 158 159 -479 0
157 477 -478 -480 0
157 158 -159 160 -477 0
157 159 160 -478 0
-157 -159 160 477 0
-157 159 160 -477 0
159 477 -478 -479 0
-158 -477 -479 -480 0
-158 -159 -160 -477 0
159 477 478 479 0
-158 -159 477 480 0
158 -159 478 -480 0
158 477 478 -479 0
-157 -158 -160 478 0
157 -160 477 -479 0
-157 -158 -478 479 0
157 -158 -477 478 0
158 -160 -477 479 0
157 -477 -478 -479 0
-157 158 -160 -478 0
157 160 -480 0
-157 160 480 0
162 -163 164 483 0
-162 -164 483 484 0
-161 162 -481 484 0
161 162 -163 483 0
161 162 163 -483 0
161 481 -482 -484 0
161 162 -163 164 -481 0
161 163 164 -482 0
-161 -163 164 481 0
-161 163 164 -481 0
163 481 -482 -483 0
-162 -481 -483 -484 0
-162 -163 -164 -481 0
163 481 482 483 0
-162 -163 481 484 0
162 -163 482 -484 0
162 481 482 -483 0
-161 -162 -164 482 0
161 -164 481 -483 0
-161 -162 -482 483 0
161 -162 -481 482 0
162 -164 -481 483 0
161 -481 -482 -483 0
-161 162 -164 -482 0
161 164 -484 0
-161 164 484 0
166 -167 168 487 0
-166 -168 487 488 0
-165 166 -485 488 0
165 166 -167 487 0
165 166 167 -487 0
165 485 -486 -488 0
165 166 -167 168 -485 0
165 167 168 -486 0
-165 -167 168 485 0
-165 167 168 -485 0
167 485 -486 -487 0
-166 -485 -487 -488 0
-166 -167 -168 -485 0
167 485 486 487 0
-166 -167 485 488 0
166 -167 486 -488 0
166 485 486 -487 0
-165 -166 -168 486 0
165 -168 485 -487 0
-165 -166 -486 487 0
165 -166 -485 486 0
166 -168 -485 487 0
165 -485 -486 -487 0
-165 166 -168 -486 0
165 168 -488 0
-165 168 488 0
170 -171 172 491 0
-170 -172 491 492 0
-169 170 -489 492 0
169 170 -171 491 0
169 170 171 -491 0
169 489 -490 -492 0
169 170 -171 172 -489 0
169 171 172 -490 0
-169 -171 172 489 0
-169 171 172 -489 0
171 489 -490 -491 0
-170 -489 -491 -492 0
-170 -171 -172 -489 0
171 489 490 491 0
-170 -171 489 492 0
170 -171 490 -492 0
170 489 490 -491 0
-169 -170 -172 490 0
169 -172 489 -491 0
-169 -170 -490 491 0
169 -170 -489 490 0
170 -172 -489 491 0
169 -489 -490 -491 0
-169 170 -172 -490 0
169 172 -492 0
-169 172 492 0
174 175 -495 0
174 -175 495 0
-174 175 495 0
-174 -175 -495 0
174 494 0
-174 -494 0
175 -493 0
-175 493 0
173 0
-176 0
496 0
178 -179 180 499 0
-178 -180 499 500 0
-177 178 -497 500 0
177 178 -179 499 0
177 178 179 -499 0
177 497 -498 -500 0
177 178 -179 180 -497 0
177 179 180 -498 0
-177 -179 180 497 0
-177 179 180 -497 0
179 497 -498 -499 0
-178 -497 -499 -500 0
-178 -179 -180 -497 0
179 497 498 499 0
-178 -179 497 500 0
178 -179 498 -500 0
178 497 498 -499 0
-177 -178 -180 498 0
177 -180 497 -499 0
-177 -178 -498 499 0
177 -178 -497 498 0
178 -180 -497 499 0
177 -497 -498 -499 0
-177 178 -180 -498 0
177 180 -500 0
-177 180 500 0
182 -183 184 503 0
-182 -184 503 504 0
-181 182 -501 504 0
181 182 -183 503 0
181 182 183 -503 0
181 501 -502 -504 0
181 182 -183 184 -501 0
181 183 184 -502 0
-181 -183 184 501 0
-181 183 184 -501 0
183 501 -502 -503 0
-182 -501 -503 -504 0
-182 -183 -184 -501 0
183 501 502 503 0
-182 -183 501 504 0
182 -183 502 -504 0
182 501 502 -503 0
-181 -182 -184 502 0
181 -184 501 -503 0
-181 -182 -502 503 0
181 -182 -501 502 0
182 -184 -501 503 0
181 -501 -502 -503 0
-181 182 -184 -502 0
181 184 -504 0
-181 184 504 0
186 -187 188 507 0
-186 -188 507 508 0
-185 186 -505 508 0
185 186 -187 507 0
185 186 187 -507 0
185 505 -506 -508 0
185 186 -187 188 -505 0
185 187 188 -506 0
-185 -187 188 505 0
-185 187 188 -505 0
187 505 -506 -507 0
-186 -505 -507 -508 0
-186 -187 -188 -505 0
187 505 506 507 0
-186 -187 505 508 0
186 -187 506 -508 0
186 505 506 -507 0
-185 -186 -188 506 0
185 -188 505 -507 0
-185 -186 -506 507 0
185 -186 -505 506 0
186 -188 -505 507 0
185 -505 -506 -507 0
-185 186 -188 -506 0
185 188 -508 0
-185 188 508 0
190 -191 192 511 0
-190 -192 511 512 0
-189 190 -509 512 0
189 190 -191 511 0
189 190 191 -511 0
189 509 -510 -512 0
189 190 -191 192 -509 0
189 191 192 -510 0
-189 -191 192 509 0
-189 191 192 -509 0
191 509 -510 -511 0
-190 -509 -511 -512 0
-190 -191 -192 -509 0
191 509 510 511 0
-190 -191 509 512 0
190 -191 510 -512 0
190 509 510 -511 0
-189 -190 -192 510 0
189 -192 509 -511 0
-189 -190 -510 511 0
189 -190 -509 510 0
190 -192 -509 511 0
189 -509 -510 -511 0
-189 190 -192 -510 0
189 192 -512 0
-189 192 512 0
449 641 -193 0
449 -641 193 0
-449 641 193 0
-449 -641 -193 0
466 657 -194 0
466 -657 194 0
-466 657 194 0
-466 -657 -194 0
483 -195 0
-483 195 0
500 -196 0
-500 196 0
497 642 -197 0
497 -642 197 0
-497 642 197 0
-497 -642 -197 0
450 658 -198 0
450 -658 198 0
-450 658 198 0
-450 -658 -198 0
467 -199 0
-467 199 0
484 -200 0
-484 200 0
481 643 -201 0
481 -643 201 0
-481 643 201 0
-481 -643 -201 0
498 659 -202 0
498 -659 202 0
-498 659 202 0
-498 -659 -202 0
451 -203 0
-451 203 0
468 -204 0
-468 204 0
465 644 -205 0
465 -644 205 0
-465 644 205 0
-465 -644 -205 0
482 660 -206 0
482 -660 206 0
-482 660 206 0
-482 -660 -206 0
499 -207 0
-499 207 0
452 -208 0
-452 208 0
453 645 -209 0
453 -645 209 0
-453 645 209 0
-453 -645 -209 0
470 661 -210 0
470 -661 210 0
-470 661 210 0
-470 -661 -210 0
487 -211 0
-487 211 0
504 -212 0
-504 212 0
501 646 -213 0
501 -646 213 0
-501 646 213 0
-501 -646 -213 0
454 662 -214 0
454 -662 214 0
-454 662 214 0
-454 -662 -214 0
471 -215 0
-471 215 0
488 -216 0
-488 216 0
485 647 -217 0
485 -647 217 0
-485 647 217 0
-485 -647 -217 0
502 663 -218 0
502 -663 218 0
-502 663 218 0
-502 -663 -218 0
455 -219 0
-455 219 0
472 -220 0
-472 220 0
469 648 -221 0
469 -648 221 0
-469 648 221 0
-469 -648 -221 0
486 664 -222 0
486 -664 222 0
-486 664 222 0
-486 -664 -222 0
503 -223 0
-503 223 0
456 -224 0
-456 224 0
457 649 -225 0
457 -649 225 0
-457 649 225 0
-457 -649 -225 0
474 665 -226 0
474 -665 226 0
-474 665 226 0
-474 -665 -226 0
491 -227 0
-491 227 0
508 -228 0
-508 228 0
505 650 -229 0
505 -650 229 0
-505 650 229 0
-505 -650 -229 0
458 666 -230 0
458 -666 230 0
-458 666 230 0
-458 -666 -230 0
475 -231 0
-475 231 0
492 -232 0
-492 232 0
489 651 -233 0
489 -651 233 0
-489 651 233 0
-489 -651 -233 0
506 667 -234 0
506 -667 234 0
-506 667 234 0
-506 -667 -234 0
459 -235 0
-459 235 0
476 -236 0
-476 236 0
473 652 -237 0
473 -652 237 0
-473 652 237 0
-473 -652 -237 0
490 668 -238 0
490 -668 238 0
-490 668 238 0
-490 -668 -238 0
507 -239 0
-507 239 0
460 -240 0
-460 240 0
461 653 -241 0
461 -653 241 0
-461 653 241 0
-461 -653 -241 0
478 669 -242 0
478 -669 242 0
-478 669 242 0
-478 -669 -242 0
495 -243 0
-495 243 0
512 -244 0
-512 244 0
509 654 -245 0
509 -654 245 0
-509 654 245 0
-509 -654 -245 0
462 670 -246 0
462 -670 246 0
-462 670 246 0
-462 -670 -246 0
479 -247 0
-479 247 0
496 -248 0
-496 248 0
493 655 -249 0
493 -655 249 0
-493 655 249 0
-493 -655 -249 0
510 671 -250 0
510 -671 250 0
-510 671 250 0
-510 -671 -250 0
463 -251 0
-463 251 0
480 -252 0
-480 252 0
477 656 -253 0
477 -656 253 0
-477 656 253 0
-477 -656 -253 0
494 672 -254 0
494 -672 254 0
-494 672 254 0
-494 -672 -254 0
511 -255 0
-511 255 0
464 -256 0
-464 256 0
194 -195 196 515 0
-194 -196 515 516 0
-193 194 -513 516 0
193 194 -195 515 0
193 194 195 -515 0
193 513 -514 -516 0
193 194 -195 196 -513 0
193 195 196 -514 0
-193 -195 196 513 0
-193 195 196 -513 0
195 513 -514 -515 0
-194 -513 -515 -516 0
-194 -195 -196 -513 0
195 513 514 515 0
-194 -195 513 516 0
194 -195 514 -516 0
194 513 514 -515 0
-193 -194 -196 514 0
193 -196 513 -515 0
-193 -194 -514 515 0
193 -194 -513 514 0
194 -196 -513 515 0
193 -513 -514 -515 0
-193 194 -196 -514 0
193 196 -516 0
-193 196 516 0
198 -199 200 519 0
-198 -200 519 520 0
-197 198 -517 520 0
197 198 -199 519 0
197 198 199 -519 0
197 517 -518 -520 0
197 198 -199 200 -517 0
197 199 200 -518 0
-197 -199 200 517 0
-197 199 200 -517 0
199 517 -518 -519 0
-198 -517 -519 -520 0
-198 -199 -200 -517 0
199 517 518 519 0
-198 -199 517 520 0
198 -199 518 -520 0
198 517 518 -519 0
-197 -198 -200 518 0
197 -200 517 -519 0
-197 -198 -518 519 0
197 -198 -517 518 0
198 -200 -517 519 0
197 -517 -518 -519 0
-197 198 -200 -518 0
197 200 -520 0
-197 200 520 0
202 -203 204 523 0
-202 -204 523 524 0
-201 202 -521 524 0
201 202 -203 523 0
201 202 203 -523 0
201 521 -522 -524 0
201 202 -203 204 -521 0
201 203 204 -522 0
-201 -203 204 521 0
-201 203 204 -521 0
203 521 -522 -523 0
-202 -521 -523 -524 0
-202 -203 -204 -521 0
203 521 522 523 0
-202 -203 521 524 0
202 -203 522 -524 0
202 521 522 -523 0
-201 -202 -204 522 0
201 -204 521 -523 0
-201 -202 -522 523 0
201 -202 -521 522 0
202 -204 -521 523 0
201 -521 -522 -523 0
-201 202 -204 -522 0
201 204 -524 0
-201 204 524 0
206 -207 208 527 0
-206 -208 527 528 0
-205 206 -525 528 0
205 206 -207 527 0
205 206 207 -527 0
205 525 -526 -528 0
205 206 -207 208 -525 0
205 207 208 -526 0
-205 -207 208 525 0
-205 207 208 -525 0
207 525 -526 -527 0
-206 -525 -527 -528 0
-206 -207 -208 -525 0
207 525 526 527 0
-206 -207 525 528 0
206 -207 526 -528 0
206 525 526 -527 0
-205 -206 -208 526 0
205 -208 525 -527 0
-205 -206 -526 527 0
205 -206 -525 526 0
206 -208 -525 527 0
205 -525 -526 -527 0
-205 206 -208 -526 0
205 208 -528 0
-205 208 528 0
210 -211 212 531 0
-210 -212 531 532 0
-209 210 -529 532 0
209 210 -211 531 0
209 210 211 -531 0
209 529 -530 -532 0
209 210 -211 212 -529 0
209 211 212 -530 0
-209 -211 212 529 0
-209 211 212 -529 0
211 529 -530 -531 0
-210 -529 -531 -532 0
-210 -211 -212 -529 0
211 529 530 531 0
-210 -211 529 532 0
210 -211 530 -532 0
210 529 530 -531 0
-209 -210 -212 530 0
209 -212 529 -531 0
-209 -210 -530 531 0
209 -210 -529 530 0
210 -212 -529 531 0
209 -529 -530 -531 0
-209 210 -212 -530 0
209 212 -532 0
-209 212 532 0
214 -215 216 535 0
-214 -216 535 536 0
-213 214 -533 536 0
213 214 -215 535 0
213 214 215 -535 0
213 533 -534 -536 0
213 214 -215 216 -533 0
213 215 216 -534 0
-213 -215 216 533 0
-213 215 216 -533 0
215 533 -534 -535 0
-214 -533 -535 -536 0
-214 -215 -216 -533 0
215 533 534 535 0
-214 -215 533 536 0
214 -215 534 -536 0
214 533 534 -535 0
-213 -214 -216 534 0
213 -216 533 -535 0
-213 -214 -534 535 0
213 -214 -533 534 0
214 -216 -533 535 0
213 -533 -534 -535 0
-213 214 -216 -534 0
213 216 -536 0
-213 216 536 0
219 220 -538 0
-219 220 538 0
218 219 -539 0
218 -219 539 0
-218 537 -538 0
-218 -537 538 0
-220 537 -539 0
-220 -537 539 0
537 538 539 0
-537 -538 -539 0
-217 0
-540 0
222 -223 224 543 0
-222 -224 543 544 0
-221 222 -541 544 0
221 222 -223 543 0
221 222 223 -543 0
221 541 -542 -544 0
221 222 -223 224 -541 0
221 223 224 -542 0
-221 -223 224 541 0
-221 223 224 -541 0
223 541 -542 -543 0
-222 -541 -543 -544 0
-222 -223 -224 -541 0
223 541 542 543 0
-222 -223 541 544 0
222 -223 542 -544 0
222 541 542 -543 0
-221 -222 -224 542 0
221 -224 541 -543 0
-221 -222 -542 543 0
221 -222 -541 542 0
222 -224 -541 543 0
221 -541 -542 -543 0
-221 222 -224 -542 0
221 224 -544 0
-221 224 544 0
226 -227 228 547 0
-226 -228 547 548 0
-225 226 -545 548 0
225 226 -227 547 0
225 226 227 -547 0
225 545 -546 -548 0
225 226 -227 228 -545 0
225 227 228 -546 0
-225 -227 228 545 0
-225 227 228 -545 0
227 545 -546 -547 0
-226 -545 -547 -548 0
-226 -227 -228 -545 0
227 545 546 547 0
-226 -227 545 548 0
226 -227 546 -548 0
226 545 546 -547 0
-225 -226 -228 546 0
225 -228 545 -547 0
-225 -226 -546 547 0
225 -226 -545 546 0
226 -228 -545 547 0
225 -545 -546 -547 0
-225 226 -228 -546 0
225 228 -548 0
-225 228 548 0
230 -231 232 551 0
-230 -232 551 552 0
-229 230 -549 552 0
229 230 -231 551 0
229 230 231 -551 0
229 549 -550 -552 0
229 230 -231 232 -549 0
229 231 232 -550 0
-229 -231 232 549 0
-229 231 232 -549 0
231 549 -550 -551 0
-230 -549 -551 -552 0
-230 -231 -232 -549 0
231 549 550 551 0
-230 -231 549 552 0
230 -231 550 -552 0
230 549 550 -551 0
-229 -230 -232 550 0
229 -232 549 -551 0
-229 -230 -550 551 0
229 -230 -549 550 0
230 -232 -549 551 0
229 -549 -550 -551 0
-229 230 -232 -550 0
229 232 -552 0
-229 232 552 0
234 235 553 0
234 -235 -553 0
-234 235 -553 0
-234 -235 553 0
235 -554 0
-235 554 0
553 555 0
-553 -555 0
-233 0
-236 0
-556 0
238 -239 240 559 0
-238 -240 559 560 0
-237 238 -557 560 0
237 238 -239 559 0
237 238 239 -559 0
237 557 -558 -560 0
237 238 -239 240 -557 0
237 239 240 -558 0
-237 -239 240 557 0
-237 239 240 -557 0
239 557 -558 -559 0
-238 -557 -559 -560 0
-238 -239 -240 -557 0
239 557 558 559 0
-238 -239 557 560 0
238 -239 558 -560 0
238 557 558 -559 0
-237 -238 -240 558 0
237 -240 557 -559 0
-237 -238 -558 559 0
237 -238 -557 558 0
238 -240 -557 559 0
237 -557 -558 -559 0
-237 238 -240 -558 0
237 240 -560 0
-237 240 560 0
242 -243 244 563 0
-242 -244 563 564 0
-241 242 -561 564 0
241 242 -243 563 0
241 242 243 -563 0
241 561 -562 -564 0
241 242 -243 244 -561 0
241 243 244 -562 0
-241 -243 244 561 0
-241 243 244 -561 0
243 561 -562 -563 0
-242 -561 -563 -564 0
-242 -243 -244 -561 0
243 561 562 563 0
-242 -243 561 564 0
242 -243 562 -564 0
242 561 562 -563 0
-241 -242 -244 562 0
241 -244 561 -563 0
-241 -242 -562 563 0
241 -242 -561 562 0
242 -244 -561 563 0
241 -561 -562 -563 0
-241 242 -244 -562 0
241 244 -564 0
-241 244 564 0
246 -247 248 567 0
-246 -248 567 568 0
-245 246 -565 568 0
245 246 -247 567 0
245 246 247 -567 0
245 565 -566 -568 0
245 246 -247 248 -565 0
245 247 248 -566 0
-245 -247 248 565 0
-245 247 248 -565 0
247 565 -566 -567 0
-246 -565 -567 -568 0
-246 -247 -248 -565 0
247 565 566 567 0
-246 -247 565 568 0
246 -247 566 -568 0
246 565 566 -567 0
-245 -246 -248 566 0
245 -248 565 -567 0
-245 -246 -566 567 0
245 -246 -565 566 0
246 -248 -565 567 0
245 -565 -566 -567 0
-245 246 -248 -566 0
245 248 -568 0
-245 248 568 0
250 -251 252 571 0
-250 -252 571 572 0
-249 250 -569 572 0
249 250 -251 571 0
249 250 251 -571 0
249 569 -570 -572 0
249 250 -251 252 -569 0
249 251 252 -570 0
-249 -251 252 569 0
-249 251 252 -569 0
251 569 -570 -571 0
-250 -569 -571 -572 0
-250 -251 -252 -569 0
251 569 570 571 0
-250 -251 569 572 0
250 -251 570 -572 0
250 569 570 -571 0
-249 -250 -252 570 0
249 -252 569 -571 0
-249 -250 -570 571 0
249 -250 -569 570 0
250 -252 -569 571 0
249 -569 -570 -571 0
-249 250 -252 -570 0
249 252 -572 0
-249 252 572 0
254 -255 256 575 0
-254 -256 575 576 0
-253 254 -573 576 0
253 254 -255 575 0
253 254 255 -575 0
253 573 -574 -576 0
253 254 -255 256 -573 0
253 255 256 -574 0
-253 -255 256 573 0
-253 255 256 -573 0
255 573 -574 -575 0
-254 -573 -575 -576 0
-254 -255 -256 -573 0
255 573 574 575 0
-254 -255 573 576 0
254 -255 574 -576 0
254 573 574 -575 0
-253 -254 -256 574 0
253 -256 573 -575 0
-253 -254 -574 575 0
253 -254 -573 574 0
254 -256 -573 575 0
253 -573 -574 -575 0
-253 254 -256 -574 0
253 256 -576 0
-253 256 576 0
513 673 -257 0
513 -673 257 0
-513 673 257 0
-513 -673 -257 0
514 689 -258 0
514 -689 258 0
-514 689 258 0
-514 -689 -258 0
515 -259 0
-515 259 0
516 -260 0
-516 260 0
517 674 -261 0
517 -674 261 0
-517 674 261 0
-517 -674 -261 0
518 690 -262 0
518 -690 262 0
-518 690 262 0
-518 -690 -262 0
519 -263 0
-519 263 0
520 -264 0
-520 264 0
521 675 -265 0
521 -675 265 0
-521 675 265 0
-521 -675 -265 0
522 691 -266 0
522 -691 266 0
-522 691 266 0
-522 -691 -266 0
523 -267 0
-523 267 0
524 -268 0
-524 268 0
525 676 -269 0
525 -676 269 0
-525 676 269 0
-525 -676 -269 0
526 692 -270 0
526 -692 270 0
-526 692 270 0
-526 -692 -270 0
527 -271 0
-527 271 0
528 -272 0
-528 272 0
529 677 -273 0
529 -677 273 0
-529 677 273 0
-529 -677 -273 0
530 693 -274 0
530 -693 274 0
-530 693 274 0
-530 -693 -274 0
531 -275 0
-531 275 0
532 -276 0
-532 276 0
533 678 -277 0
533 -678 277 0
-533 678 277 0
-533 -678 -277 0
534 694 -278 0
534 -694 278 0
-534 694 278 0
-534 -694 -278 0
535 -279 0
-535 279 0
536 -280 0
-536 280 0
537 679 -281 0
537 -679 281 0
-537 679 281 0
-537 -679 -281 0
538 695 -282 0
538 -695 282 0
-538 695 282 0
-538 -695 -282 0
539 -283 0
-539 283 0
540 -284 0
-540 284 0
541 680 -285 0
541 -680 285 0
-541 680 285 0
-541 -680 -285 0
542 696 -286 0
542 -696 286 0
-542 696 286 0
-542 -696 -286 0
543 -287 0
-543 287 0
544 -288 0
-544 288 0
545 681 -289 0
545 -681 289 0
-545 681 289 0
-545 -681 -289 0
546 697 -290 0
546 -697 290 0
-546 697 290 0
-546 -697 -290 0
547 -291 0
-547 291 0
548 -292 0
-548 292 0
549 682 -293 0
549 -682 293 0
-549 682 293 0
-549 -682 -293 0
550 698 -294 0
550 -698 294 0
-550 698 294 0
-550 -698 -294 0
551 -295 0
-551 295 0
552 -296 0
-552 296 0
553 683 -297 0
553 -683 297 0
-553 683 297 0
-553 -683 -297 0
554 699 -298 0
554 -699 298 0
-554 699 298 0
-554 -699 -298 0
555 -299 0
-555 299 0
556 -300 0
-556 300 0
557 684 -301 0
557 -684 301 0
-557 684 301 0
-557 -684 -301 0
558 700 -302 0
558 -700 302 0
-558 700 302 0
-558 -700 -302 0
559 -303 0
-559 303 0
560 -304 0
-560 304 0
561 685 -305 0
561 -685 305 0
-561 685 305 0
-561 -685 -305 0
562 701 -306 0
562 -701 306 0
-562 701 306 0
-562 -701 -306 0
563 -307 0
-563 307 0
564 -308 0
-564 308 0
565 686 -309 0
565 -686 309 0
-565 686 309 0
-565 -686 -309 0
566 702 -310 0
566 -702 310 0
-566 702 310 0
-566 -702 -310 0
567 -311 0
-567 311 0
568 -312 0
-568 312 0
569 687 -313 0
569 -687 313 0
-569 687 313 0
-569 -687 -313 0
570 703 -314 0
570 -703 314 0
-570 703 314 0
-570 -703 -314 0
571 -315 0
-571 315 0
572 -316 0
-572 316 0
573 688 -317 0
573 -688 317 0
-573 688 317 0
-573 -688 -317 0
574 704 -318 0
574 -704 318 0
-574 704 318 0
-574 -704 -318 0
575 -319 0
-575 319 0
576 -320 0
-576 320 0